c A SAT instance generated from a 3-CNF formula that had 20 clauses and 10 variables
p cnf 10 20
9 7 -8 0
-3 1 8 0
-1 7 -8 0
-1 -10 6 0
-4 7 -3 0
3 -4 10 0
8 -10 -3 0
4 -9 -6 0
10 -6 7 0
6 -8 -5 0
9 -6 8 0
4 -2 7 0
2 3 1 0
-10 -7 -1 0
6 -8 2 0
7 10 1 0
-10 4 2 0
-6 -10 1 0
7 4 9 0
5 10 3 0
%
0

5 12 39 10 78 60 29 8 31 91
